(set-info :status unknown)
(declare-const symbol_4 (_ BitVec 32))
(declare-const symbol_0 (_ BitVec 32))
(declare-const symbol_3 (_ BitVec 32))
(declare-const symbol_6 (_ BitVec 32))
(declare-const symbol_1 (_ BitVec 32))
(declare-const symbol_2 (_ BitVec 32))
(declare-const symbol_5 (_ BitVec 32))
(assert (= symbol_6 symbol_3))
(assert (not (= symbol_6 symbol_4)))
(assert (not (= symbol_6 symbol_5)))
(assert (not (= symbol_5 symbol_1)))
(assert (not (= symbol_5 symbol_2)))
(assert (not (= symbol_5 symbol_3)))
(assert (not (= symbol_5 symbol_4)))
(assert (not (= symbol_4 symbol_1)))
(assert (not (= symbol_4 symbol_2)))
(assert (not (= symbol_4 symbol_3)))
(assert (not (= symbol_3 symbol_1)))
(assert (not (= symbol_3 symbol_2)))
(assert (not (= symbol_2 symbol_1)))
(assert (= symbol_1 symbol_0))
(check-sat)